coords = array2d(1..50, 1..2, [978, 453, 578, 42, 660, 944, 890, 542, 531, 121,
    398, 396, 720, 762, 320, 430, 574, 162, 519, 50, 422, 452, 737,
    857, 88, 17, 673, 815, 254, 952, 527, 784, 334, 866, 243, 457,
    804, 631, 402, 708, 55, 227, 824, 428, 579, 814, 10, 100, 449,
    415, 131, 76, 480, 748, 35, 41, 378, 592, 837, 414, 102, 987, 708,
    317, 474, 723, 625, 45, 308, 625, 415, 791, 822, 799, 78, 705,
    877, 876, 875, 619, 862, 336, 393, 951, 386, 584, 29, 367, 372,
    762, 124, 439, 915, 801, 397, 222, 766, 214, 883, 971]);

n = 50;

